NAME          DCAP_3_4_2_500_SS464
ROWS
 N  OBJ
 L  CON1
 L  CON2
 L  CON3
 L  CON4
 L  CON5
 L  CON6
 L  CON7
 L  CON8
 L  CON9
 L  CON10
 L  CON11
 L  CON12
 E  CON13
 E  CON14
 E  CON15
 E  CON16
 E  CON17
 E  CON18
 E  CON19
 E  CON20
COLUMNS
    x[1,1]    OBJ       6.180167      CON1      1.000000    
    x[1,1]    CON7      -1.000000     CON8      -1.000000   
    x[1,2]    OBJ       5.039546      CON2      1.000000    
    x[1,2]    CON8      -1.000000   
    x[2,1]    OBJ       6.732585      CON3      1.000000    
    x[2,1]    CON9      -1.000000     CON10     -1.000000   
    x[2,2]    OBJ       7.443064      CON4      1.000000    
    x[2,2]    CON10     -1.000000   
    x[3,1]    OBJ       6.563535      CON5      1.000000    
    x[3,1]    CON11     -1.000000     CON12     -1.000000   
    x[3,2]    OBJ       6.054841      CON6      1.000000    
    x[3,2]    CON12     -1.000000   
    MARKER    'MARKER'                'INTORG'
    u[1,1]    OBJ       48.076654     CON1      -1.000000   
    u[1,2]    OBJ       49.466655     CON2      -1.000000   
    u[2,1]    OBJ       49.996186     CON3      -1.000000   
    u[2,2]    OBJ       32.230043     CON4      -1.000000   
    u[3,1]    OBJ       20.066487     CON5      -1.000000   
    u[3,2]    OBJ       27.484319     CON6      -1.000000   
    y[1,1,1]  OBJ       7.535812      CON7      0.674449    
    y[1,1,1]  CON13     1.000000    
    y[1,1,2]  OBJ       8.508629      CON8      1.398602    
    y[1,1,2]  CON14     1.000000    
    y[1,2,1]  OBJ       5.896825      CON7      0.512245    
    y[1,2,1]  CON15     1.000000    
    y[1,2,2]  OBJ       5.782960      CON8      0.559775    
    y[1,2,2]  CON16     1.000000    
    y[1,3,1]  OBJ       7.755331      CON7      1.362209    
    y[1,3,1]  CON17     1.000000    
    y[1,3,2]  OBJ       9.780101      CON8      0.695408    
    y[1,3,2]  CON18     1.000000    
    y[1,4,1]  OBJ       5.904734      CON7      0.961393    
    y[1,4,1]  CON19     1.000000    
    y[1,4,2]  OBJ       6.270243      CON8      0.731246    
    y[1,4,2]  CON20     1.000000    
    y[2,1,1]  OBJ       9.583398      CON9      0.674449    
    y[2,1,1]  CON13     1.000000    
    y[2,1,2]  OBJ       8.145102      CON10     1.398602    
    y[2,1,2]  CON14     1.000000    
    y[2,2,1]  OBJ       5.207997      CON9      0.512245    
    y[2,2,1]  CON15     1.000000    
    y[2,2,2]  OBJ       6.687532      CON10     0.559775    
    y[2,2,2]  CON16     1.000000    
    y[2,3,1]  OBJ       5.816269      CON9      1.362209    
    y[2,3,1]  CON17     1.000000    
    y[2,3,2]  OBJ       6.268274      CON10     0.695408    
    y[2,3,2]  CON18     1.000000    
    y[2,4,1]  OBJ       6.834931      CON9      0.961393    
    y[2,4,1]  CON19     1.000000    
    y[2,4,2]  OBJ       6.256138      CON10     0.731246    
    y[2,4,2]  CON20     1.000000    
    y[3,1,1]  OBJ       8.162765      CON11     0.674449    
    y[3,1,1]  CON13     1.000000    
    y[3,1,2]  OBJ       7.338781      CON12     1.398602    
    y[3,1,2]  CON14     1.000000    
    y[3,2,1]  OBJ       9.355094      CON11     0.512245    
    y[3,2,1]  CON15     1.000000    
    y[3,2,2]  OBJ       9.025296      CON12     0.559775    
    y[3,2,2]  CON16     1.000000    
    y[3,3,1]  OBJ       8.758332      CON11     1.362209    
    y[3,3,1]  CON17     1.000000    
    y[3,3,2]  OBJ       8.227744      CON12     0.695408    
    y[3,3,2]  CON18     1.000000    
    y[3,4,1]  OBJ       9.977106      CON11     0.961393    
    y[3,4,1]  CON19     1.000000    
    y[3,4,2]  OBJ       7.514249      CON12     0.731246    
    y[3,4,2]  CON20     1.000000    
    z[1,1]    OBJ       753.344081    CON13     1.000000    
    z[1,2]    OBJ       646.819122    CON14     1.000000    
    z[2,1]    OBJ       519.038769    CON15     1.000000    
    z[2,2]    OBJ       750.081994    CON16     1.000000    
    z[3,1]    OBJ       998.625897    CON17     1.000000    
    z[3,2]    OBJ       874.301228    CON18     1.000000    
    z[4,1]    OBJ       990.145184    CON19     1.000000    
    z[4,2]    OBJ       889.689411    CON20     1.000000    
    MARKER    'MARKER'                 'INTEND'
RHS
    RHS       CON1      -0.000000     CON2      -0.000000   
    RHS       CON3      -0.000000     CON4      -0.000000   
    RHS       CON5      -0.000000     CON6      -0.000000   
    RHS       CON7      -0.000000     CON8      -0.000000   
    RHS       CON9      -0.000000     CON10     -0.000000   
    RHS       CON11     -0.000000     CON12     -0.000000   
    RHS       CON13     1.000000      CON14     1.000000    
    RHS       CON15     1.000000      CON16     1.000000    
    RHS       CON17     1.000000      CON18     1.000000    
    RHS       CON19     1.000000      CON20     1.000000    
BOUNDS
 BV BOUND     u[1,1]  
 BV BOUND     u[1,2]  
 BV BOUND     u[2,1]  
 BV BOUND     u[2,2]  
 BV BOUND     u[3,1]  
 BV BOUND     u[3,2]  
 BV BOUND     y[1,1,1]
 BV BOUND     y[1,1,2]
 BV BOUND     y[1,2,1]
 BV BOUND     y[1,2,2]
 BV BOUND     y[1,3,1]
 BV BOUND     y[1,3,2]
 BV BOUND     y[1,4,1]
 BV BOUND     y[1,4,2]
 BV BOUND     y[2,1,1]
 BV BOUND     y[2,1,2]
 BV BOUND     y[2,2,1]
 BV BOUND     y[2,2,2]
 BV BOUND     y[2,3,1]
 BV BOUND     y[2,3,2]
 BV BOUND     y[2,4,1]
 BV BOUND     y[2,4,2]
 BV BOUND     y[3,1,1]
 BV BOUND     y[3,1,2]
 BV BOUND     y[3,2,1]
 BV BOUND     y[3,2,2]
 BV BOUND     y[3,3,1]
 BV BOUND     y[3,3,2]
 BV BOUND     y[3,4,1]
 BV BOUND     y[3,4,2]
 BV BOUND     z[1,1]  
 BV BOUND     z[1,2]  
 BV BOUND     z[2,1]  
 BV BOUND     z[2,2]  
 BV BOUND     z[3,1]  
 BV BOUND     z[3,2]  
 BV BOUND     z[4,1]  
 BV BOUND     z[4,2]  
ENDATA
